NAME: ../File/prFile/tspFile/tsp_file27.tsp
COMMENT: TSP file generated by Python
TYPE: TSP
DIMENSION: 30
EDGE_WEIGHT_TYPE: EUC_2D
NODE_COORD_SECTION
1 95 72
2 32 8
3 65 83
4 10 35
5 54 47
6 65 74
7 39 43
8 31 31
9 8 86
10 97 53
11 43 48
12 69 28
13 92 21
14 57 29
15 61 22
16 84 39
17 68 52
18 32 34
19 32 7
20 31 23
21 26 79
22 91 55
23 100 29
24 53 91
25 88 73
26 84 91
27 62 99
28 42 30
29 68 97
30 5 56
EOF
